10
848 890 688  815
857 826 827  401
537 804 862  335
422 753 546  760
621 589 533  193
552 519 463  744
847 655 982  235
880 744 934  830
452 745 594  688
689 645 918  100
10
620 759 452  192 72
53 307 184  176 107
781 25 180  247 143
551 381 117  120 104
362 287 141  108 178
298 233 151  228 281
163 210 199  50 206
321 366 106  109 133
448 176 94  219 104
270 40 573  130 159
